NAME 
ROWS
 N  OBJ
 L  R0      
 L  R1      
 E  R2      
 E  R3      
 E  R4      
 E  R5      
 E  R6      
 E  R7      
 E  R8      
 E  R9      
 E  R10     
 E  R11     
 E  R12     
 E  R13     
 E  R14     
 E  R15     
 E  R16     
COLUMNS
    MARKER    'MARKER'                 'INTORG'
    I0(7)     OBJ       -113
    I0(7)     R0        37
    I0(7)     R1        -115
    I0(7)     R4        19
    I0(7)     R6        13
    I0(7)     R7        16
    I0(7)     R9        13
    I0(7)     R16       1
    I1(8)     OBJ       163
    I1(8)     R0        69
    I1(8)     R1        -51
    I1(8)     R2        4
    I1(8)     R3        7
    I1(8)     R5        12
    I1(8)     R8        17
    I1(8)     R9        -1
    I1(8)     R16       1
    I2(7)     OBJ       -62
    I2(7)     R0        -98
    I2(7)     R1        -71
    I2(7)     R3        17
    I2(7)     R5        7
    I2(7)     R6        13
    I2(7)     R10       9
    I2(7)     R16       1
    I3(9)     OBJ       37
    I3(9)     R0        11
    I3(9)     R1        164
    I3(9)     R2        5
    I3(9)     R3        7
    I3(9)     R6        -1
    I3(9)     R8        4
    I3(9)     R9        10
    I3(9)     R10       -1
    I3(9)     R16       1
    I4(10)    OBJ       -84
    I4(10)    R0        59
    I4(10)    R1        -20
    I4(10)    R2        19
    I4(10)    R3        19
    I4(10)    R5        18
    I4(10)    R6        5
    I4(10)    R8        14
    I4(10)    R9        7
    I4(10)    R10       18
    I4(10)    R16       1
    I5(8)     OBJ       -142
    I5(8)     R0        -191
    I5(8)     R1        -76
    I5(8)     R2        9
    I5(8)     R6        2
    I5(8)     R7        1
    I5(8)     R8        -1
    I5(8)     R9        5
    I5(8)     R16       1
    I6(7)     OBJ       -144
    I6(7)     R0        -34
    I6(7)     R1        -90
    I6(7)     R2        13
    I6(7)     R3        10
    I6(7)     R5        18
    I6(7)     R7        19
    I6(7)     R16       1
    I7(11)    OBJ       -175
    I7(11)    R0        -150
    I7(11)    R1        5
    I7(11)    R2        -1
    I7(11)    R3        10
    I7(11)    R4        17
    I7(11)    R6        9
    I7(11)    R7        6
    I7(11)    R8        19
    I7(11)    R9        13
    I7(11)    R10       9
    I7(11)    R16       1
    I8(9)     OBJ       -175
    I8(9)     R0        -198
    I8(9)     R1        -12
    I8(9)     R4        3
    I8(9)     R5        8
    I8(9)     R6        6
    I8(9)     R8        10
    I8(9)     R9        14
    I8(9)     R10       9
    I8(9)     R16       1
    MARKER    'MARKER'                 'INTEND'
    C9(11)    OBJ       3
    C9(11)    R0        2
    C9(11)    R1        9
    C9(11)    R2        8
    C9(11)    R3        3
    C9(11)    R4        9
    C9(11)    R7        3
    C9(11)    R9        14
    C9(11)    R10       6
    C9(11)    R11       18
    C9(11)    R12       4
    C9(11)    R13       7
    C10(11)   OBJ       7
    C10(11)   R0        3
    C10(11)   R1        3
    C10(11)   R2        1
    C10(11)   R3        5
    C10(11)   R4        11
    C10(11)   R6        15
    C10(11)   R8        15
    C10(11)   R9        5
    C10(11)   R10       6
    C10(11)   R12       14
    C10(11)   R15       17
    C11(9)    OBJ       3
    C11(9)    R0        -4
    C11(9)    R1        7
    C11(9)    R2        6
    C11(9)    R3        19
    C11(9)    R6        15
    C11(9)    R7        -1
    C11(9)    R8        4
    C11(9)    R12       11
    C11(9)    R13       19
    C12(15)   OBJ       -9
    C12(15)   R0        -9
    C12(15)   R1        -8
    C12(15)   R3        19
    C12(15)   R4        2
    C12(15)   R5        12
    C12(15)   R6        13
    C12(15)   R7        3
    C12(15)   R8        6
    C12(15)   R9        8
    C12(15)   R10       4
    C12(15)   R11       4
    C12(15)   R12       18
    C12(15)   R13       18
    C12(15)   R14       -1
    C12(15)   R15       8
    C13(8)    OBJ       7
    C13(8)    R0        8
    C13(8)    R1        -8
    C13(8)    R2        18
    C13(8)    R4        13
    C13(8)    R10       19
    C13(8)    R11       19
    C13(8)    R12       3
    C13(8)    R15       -1
    C14(12)   R0        1
    C14(12)   R1        2
    C14(12)   R2        19
    C14(12)   R3        11
    C14(12)   R4        7
    C14(12)   R5        16
    C14(12)   R6        1
    C14(12)   R8        7
    C14(12)   R11       15
    C14(12)   R12       17
    C14(12)   R14       14
    C14(12)   R15       11
    C15(1)    R2        1
    C16(1)    R3        1
    C17(1)    R4        1
    C18(1)    R5        1
    C19(1)    R6        1
    C20(1)    R7        1
    C21(1)    R8        1
    C22(1)    R9        1
    C23(1)    R10       1
    C24(1)    R11       1
    C25(1)    R12       1
    C26(1)    R13       1
    C27(1)    R14       1
    C28(1)    R15       1
    C29(1)    R16       1
RHS
    RHS1      R0        -5.6552631578947364e+02
    RHS1      R1        -1.0657894736842101e+02
    RHS1      R2        56
    RHS1      R3        66
    RHS1      R4        80
    RHS1      R5        60
    RHS1      R6        94
    RHS1      R7        98
    RHS1      R8        69
    RHS1      R9        78
    RHS1      R10       52
    RHS1      R11       67
    RHS1      R12       85
    RHS1      R13       90
    RHS1      R14       63
    RHS1      R15       72
    RHS1      R16       3
BOUNDS
 UP BND1      I0(7)     1
 UP BND1      I1(8)     1
 UP BND1      I2(7)     1
 UP BND1      I3(9)     1
 UP BND1      I4(10)    1
 UP BND1      I5(8)     1
 UP BND1      I6(7)     1
 UP BND1      I7(11)    1
 UP BND1      I8(9)     1
ENDATA
